src/RACER/swarm_exploration/utils/lkh_mtsp_solver/resource/amtsp_1.atsp
NAME : amtsp
TYPE : ATSP
DIMENSION : 8
EDGE_WEIGHT_TYPE : EXPLICIT
EDGE_WEIGHT_FORMAT : FULL_MATRIX
EDGE_WEIGHT_SECTION
100000 -100000 100000 100000 100000 100000 100000 100000 
100000 100000 396 274 273 220 216 100000 
0 0 100000 172 197 174 172 198 
0 0 172 100000 37 143 142 321 
0 0 197 37 100000 180 180 350 
0 0 174 143 180 100000 9 359 
0 0 172 142 180 9 100000 351 
-100000 100000 198 321 350 359 351 100000 
