src/RACER/swarm_exploration/utils/lkh_mtsp_solver/resource/amtsp_1.tour
NAME : amtsp.-199134.tour
COMMENT : Length = -199134
COMMENT : Found by LKH [Keld Helsgaun] Wed Apr 23 09:29:20 2025
TYPE : TOUR
DIMENSION : 4
TOUR_SECTION
1
2
3
4
-1
EOF
